c ind 100 105 106 115 116 130 132 134 136 138 0
c ind 140 142 144 147 152 18 186 192 194 196 0
c ind 198 20 209 215 219 22 233 235 237 239 0
c ind 24 241 243 245 247 255 26 260 271 276 0
c ind 28 30 32 38 39 41 43 45 59 61 0
c ind 63 65 67 69 71 73 8 9 94 95 0
c ind 99 0
p cnf 284 851
-1 2 0
-1 266 0
-10 11 0
-10 31 0
-101 94 0
-101 95 0
-102 -103 39 0
-102 -39 103 0
-103 -104 -107 0
-103 104 107 0
-104 -105 -106 0
-104 105 106 0
-107 108 111 0
-108 109 110 0
-109 100 0
-109 99 0
-11 12 0
-11 29 0
-110 100 0
-110 101 0
-111 101 0
-111 99 0
-112 -113 39 0
-112 -39 113 0
-113 -114 -117 0
-113 114 117 0
-114 -115 -116 0
-114 115 116 0
-117 118 121 0
-118 119 120 0
-119 105 0
-119 106 0
-12 13 0
-12 27 0
-120 106 0
-120 107 0
-121 105 0
-121 107 0
-122 123 0
-122 143 0
-123 124 0
-123 141 0
-124 125 0
-124 139 0
-125 126 0
-125 137 0
-126 127 0
-126 135 0
-127 128 0
-127 133 0
-128 129 0
-128 131 0
-129 -130 18 0
-129 -18 130 0
-13 14 0
-13 25 0
-131 -132 20 0
-131 -20 132 0
-133 -134 22 0
-133 -22 134 0
-135 -136 24 0
-135 -24 136 0
-137 -138 26 0
-137 -26 138 0
-139 -140 28 0
-139 -28 140 0
-14 15 0
-14 23 0
-141 -142 30 0
-141 -30 142 0
-143 -144 32 0
-143 -32 144 0
-145 -7 146 0
-145 7 148 0
-146 -147 9 0
-146 -9 147 0
-148 -34 146 0
-148 34 149 0
-149 -47 146 0
-149 47 150 0
-15 16 0
-15 21 0
-150 -75 151 0
-150 75 153 0
-151 -147 152 0
-151 -152 147 0
-153 -80 151 0
-153 80 154 0
-154 -84 151 0
-154 84 155 0
-155 -156 151 0
-155 156 158 0
-156 157 0
-156 44 0
-157 49 0
-157 86 0
-158 -159 151 0
-158 159 161 0
-159 160 0
-159 44 0
-16 17 0
-16 19 0
-160 77 0
-160 86 0
-161 -162 151 0
-161 162 164 0
-162 163 0
-162 35 0
-163 -45 9 0
-163 -9 45 0
-164 -165 151 0
-164 165 167 0
-165 166 0
-165 44 0
-166 82 0
-166 86 0
-167 -168 151 0
-167 168 169 0
-168 163 0
-168 48 0
-169 -170 171 0
-169 170 176 0
-17 -18 9 0
-17 -9 18 0
-170 163 0
-170 76 0
-171 172 0
-171 175 0
-172 173 0
-172 175 0
-173 174 0
-173 175 0
-174 -147 39 0
-174 -39 147 0
-175 -39 39 0
-176 -177 178 0
-176 177 151 0
-177 163 0
-177 81 0
-178 -179 146 0
-178 179 151 0
-179 112 0
-179 180 0
-180 102 0
-180 181 0
-181 182 0
-181 183 0
-182 -9 92 0
-182 -92 9 0
-183 -9 97 0
-183 -97 9 0
-184 -7 185 0
-184 7 187 0
-185 -186 9 0
-185 -9 186 0
-187 -188 185 0
-187 188 199 0
-188 189 0
-188 197 0
-189 190 0
-189 195 0
-19 -20 9 0
-19 -9 20 0
-190 191 0
-190 193 0
-191 -192 39 0
-191 -39 192 0
-193 -194 39 0
-193 -39 194 0
-195 -196 39 0
-195 -39 196 0
-197 -198 39 0
-197 -39 198 0
-199 -200 204 0
-199 200 208 0
-2 250 0
-2 3 0
-200 197 0
-200 201 0
-201 195 0
-201 202 0
-202 193 0
-202 203 0
-203 -192 9 0
-203 -9 192 0
-204 175 0
-204 205 0
-205 175 0
-205 206 0
-206 175 0
-206 207 0
-207 -186 39 0
-207 -39 186 0
-208 -186 209 0
-208 -209 186 0
-21 -22 9 0
-21 -9 22 0
-210 -7 211 0
-210 7 216 0
-211 175 0
-211 212 0
-212 175 0
-212 213 0
-213 175 0
-213 214 0
-214 -215 39 0
-214 -39 215 0
-216 -34 211 0
-216 34 217 0
-217 -47 218 0
-217 47 220 0
-218 -215 219 0
-218 -219 215 0
-220 -75 218 0
-220 75 221 0
-221 -80 218 0
-221 80 222 0
-222 -84 218 0
-222 84 223 0
-223 -156 224 0
-223 156 249 0
-224 -225 248 0
-224 225 218 0
-225 226 0
-225 246 0
-226 227 0
-226 244 0
-227 228 0
-227 242 0
-228 229 0
-228 240 0
-229 230 0
-229 238 0
-23 -24 9 0
-23 -9 24 0
-230 231 0
-230 236 0
-231 232 0
-231 234 0
-232 -233 39 0
-232 -39 233 0
-234 -235 39 0
-234 -39 235 0
-236 -237 39 0
-236 -39 237 0
-238 -239 39 0
-238 -39 239 0
-240 -241 39 0
-240 -39 241 0
-242 -243 39 0
-242 -39 243 0
-244 -245 39 0
-244 -39 245 0
-246 -247 39 0
-246 -39 247 0
-248 -215 9 0
-248 -9 215 0
-249 -159 211 0
-249 159 218 0
-25 -26 9 0
-25 -9 26 0
-250 -7 251 0
-250 7 256 0
-251 175 0
-251 252 0
-252 175 0
-252 253 0
-253 175 0
-253 254 0
-254 -255 39 0
-254 -39 255 0
-256 -34 251 0
-256 34 257 0
-257 -47 251 0
-257 47 258 0
-258 -75 259 0
-258 75 261 0
-259 -255 260 0
-259 -260 255 0
-261 -80 259 0
-261 80 262 0
-262 -84 259 0
-262 84 263 0
-263 -156 264 0
-263 156 259 0
-264 -225 265 0
-264 225 251 0
-265 -255 9 0
-265 -9 255 0
-266 -7 267 0
-266 7 272 0
-267 175 0
-267 268 0
-268 175 0
-268 269 0
-269 175 0
-269 270 0
-27 -28 9 0
-27 -9 28 0
-270 -271 39 0
-270 -39 271 0
-272 -34 267 0
-272 34 273 0
-273 -47 267 0
-273 47 274 0
-274 -75 275 0
-274 75 277 0
-275 -271 276 0
-275 -276 271 0
-277 -80 275 0
-277 80 278 0
-278 -84 275 0
-278 84 279 0
-279 -156 275 0
-279 156 280 0
-280 -159 275 0
-280 159 281 0
-281 -162 282 0
-281 162 283 0
-282 -271 9 0
-282 -9 271 0
-283 -165 267 0
-283 165 284 0
-284 -168 267 0
-284 168 275 0
-29 -30 9 0
-29 -9 30 0
-3 210 0
-3 4 0
-31 -32 9 0
-31 -9 32 0
-33 -34 10 0
-33 34 46 0
-34 35 0
-34 44 0
-35 36 0
-35 42 0
-36 37 0
-36 40 0
-37 -38 39 0
-37 -39 38 0
-39 0
-4 184 0
-4 5 0
-40 -39 41 0
-40 -41 39 0
-42 -39 43 0
-42 -43 39 0
-44 -39 45 0
-44 -45 39 0
-46 -47 51 0
-46 47 74 0
-47 44 0
-47 48 0
-48 42 0
-48 49 0
-49 40 0
-49 50 0
-5 145 0
-5 6 0
-50 -38 9 0
-50 -9 38 0
-51 52 0
-51 72 0
-52 53 0
-52 70 0
-53 54 0
-53 68 0
-54 55 0
-54 66 0
-55 56 0
-55 64 0
-56 57 0
-56 62 0
-57 58 0
-57 60 0
-58 -18 59 0
-58 -59 18 0
-6 -7 10 0
-6 7 33 0
-60 -20 61 0
-60 -61 20 0
-62 -22 63 0
-62 -63 22 0
-64 -24 65 0
-64 -65 24 0
-66 -26 67 0
-66 -67 26 0
-68 -28 69 0
-68 -69 28 0
-7 -8 9 0
-7 -9 8 0
-70 -30 71 0
-70 -71 30 0
-72 -32 73 0
-72 -73 32 0
-74 -75 51 0
-74 75 79 0
-75 44 0
-75 76 0
-76 42 0
-76 77 0
-77 37 0
-77 78 0
-78 -41 9 0
-78 -9 41 0
-79 -80 51 0
-79 80 83 0
-80 44 0
-80 81 0
-81 42 0
-81 82 0
-82 50 0
-82 78 0
-83 -84 87 0
-83 84 51 0
-84 44 0
-84 85 0
-85 36 0
-85 86 0
-86 -43 9 0
-86 -9 43 0
-87 -88 122 0
-87 88 51 0
-88 112 0
-88 89 0
-89 102 0
-89 90 0
-90 91 0
-90 96 0
-91 -39 92 0
-91 -92 39 0
-92 -93 -39 0
-92 93 39 0
-93 -94 -95 0
-93 94 95 0
-96 -39 97 0
-96 -97 39 0
-97 -98 -101 0
-97 98 101 0
-98 -99 -100 0
-98 99 100 0
1 -2 -266 0
1 0
10 -11 -31 0
101 -94 -95 0
102 -103 -39 0
102 103 39 0
103 -104 107 0
103 -107 104 0
104 -105 106 0
104 -106 105 0
107 -108 0
107 -111 0
108 -109 0
108 -110 0
109 -99 -100 0
11 -12 -29 0
110 -100 -101 0
111 -99 -101 0
112 -113 -39 0
112 113 39 0
113 -114 117 0
113 -117 114 0
114 -115 116 0
114 -116 115 0
117 -118 0
117 -121 0
118 -119 0
118 -120 0
119 -105 -106 0
12 -13 -27 0
120 -106 -107 0
121 -105 -107 0
122 -123 -143 0
123 -124 -141 0
124 -125 -139 0
125 -126 -137 0
126 -127 -135 0
127 -128 -133 0
128 -129 -131 0
129 -18 -130 0
129 18 130 0
13 -14 -25 0
131 -20 -132 0
131 20 132 0
133 -22 -134 0
133 22 134 0
135 -24 -136 0
135 24 136 0
137 -26 -138 0
137 26 138 0
139 -28 -140 0
139 28 140 0
14 -15 -23 0
141 -30 -142 0
141 30 142 0
143 -32 -144 0
143 32 144 0
145 -146 -148 0
145 -7 -146 0
145 7 -148 0
146 -147 -9 0
146 147 9 0
148 -146 -149 0
148 -34 -146 0
148 34 -149 0
149 -146 -150 0
149 -47 -146 0
149 47 -150 0
15 -16 -21 0
150 -151 -153 0
150 -75 -151 0
150 75 -153 0
151 -147 -152 0
151 147 152 0
153 -151 -154 0
153 -80 -151 0
153 80 -154 0
154 -151 -155 0
154 -84 -151 0
154 84 -155 0
155 -151 -158 0
155 -156 -151 0
155 156 -158 0
156 -157 -44 0
157 -49 -86 0
158 -151 -161 0
158 -159 -151 0
158 159 -161 0
159 -160 -44 0
16 -17 -19 0
160 -77 -86 0
161 -151 -164 0
161 -162 -151 0
161 162 -164 0
162 -35 -163 0
163 -45 -9 0
163 45 9 0
164 -151 -167 0
164 -165 -151 0
164 165 -167 0
165 -166 -44 0
166 -82 -86 0
167 -151 -169 0
167 -168 -151 0
167 168 -169 0
168 -48 -163 0
169 -170 -171 0
169 -171 -176 0
169 170 -176 0
17 -18 -9 0
17 18 9 0
170 -76 -163 0
171 -172 -175 0
172 -173 -175 0
173 -174 -175 0
174 -147 -39 0
174 147 39 0
175 -39 -39 0
175 39 39 0
176 -177 -178 0
176 -178 -151 0
176 177 -151 0
177 -81 -163 0
178 -146 -151 0
178 -179 -146 0
178 179 -151 0
179 -180 -112 0
180 -181 -102 0
181 -182 -183 0
182 -92 -9 0
182 92 9 0
183 -97 -9 0
183 97 9 0
184 -185 -187 0
184 -7 -185 0
184 7 -187 0
185 -186 -9 0
185 186 9 0
187 -185 -199 0
187 -188 -185 0
187 188 -199 0
188 -189 -197 0
189 -190 -195 0
19 -20 -9 0
19 20 9 0
190 -191 -193 0
191 -192 -39 0
191 192 39 0
193 -194 -39 0
193 194 39 0
195 -196 -39 0
195 196 39 0
197 -198 -39 0
197 198 39 0
199 -200 -204 0
199 -204 -208 0
199 200 -208 0
2 -3 -250 0
200 -201 -197 0
201 -202 -195 0
202 -203 -193 0
203 -192 -9 0
203 192 9 0
204 -205 -175 0
205 -206 -175 0
206 -207 -175 0
207 -186 -39 0
207 186 39 0
208 -186 -209 0
208 186 209 0
21 -22 -9 0
21 22 9 0
210 -211 -216 0
210 -7 -211 0
210 7 -216 0
211 -212 -175 0
212 -213 -175 0
213 -214 -175 0
214 -215 -39 0
214 215 39 0
216 -211 -217 0
216 -34 -211 0
216 34 -217 0
217 -218 -220 0
217 -47 -218 0
217 47 -220 0
218 -215 -219 0
218 215 219 0
220 -218 -221 0
220 -75 -218 0
220 75 -221 0
221 -218 -222 0
221 -80 -218 0
221 80 -222 0
222 -218 -223 0
222 -84 -218 0
222 84 -223 0
223 -156 -224 0
223 -224 -249 0
223 156 -249 0
224 -225 -248 0
224 -248 -218 0
224 225 -218 0
225 -226 -246 0
226 -227 -244 0
227 -228 -242 0
228 -229 -240 0
229 -230 -238 0
23 -24 -9 0
23 24 9 0
230 -231 -236 0
231 -232 -234 0
232 -233 -39 0
232 233 39 0
234 -235 -39 0
234 235 39 0
236 -237 -39 0
236 237 39 0
238 -239 -39 0
238 239 39 0
240 -241 -39 0
240 241 39 0
242 -243 -39 0
242 243 39 0
244 -245 -39 0
244 245 39 0
246 -247 -39 0
246 247 39 0
248 -215 -9 0
248 215 9 0
249 -159 -211 0
249 -211 -218 0
249 159 -218 0
25 -26 -9 0
25 26 9 0
250 -251 -256 0
250 -7 -251 0
250 7 -256 0
251 -252 -175 0
252 -253 -175 0
253 -254 -175 0
254 -255 -39 0
254 255 39 0
256 -251 -257 0
256 -34 -251 0
256 34 -257 0
257 -251 -258 0
257 -47 -251 0
257 47 -258 0
258 -259 -261 0
258 -75 -259 0
258 75 -261 0
259 -255 -260 0
259 255 260 0
261 -259 -262 0
261 -80 -259 0
261 80 -262 0
262 -259 -263 0
262 -84 -259 0
262 84 -263 0
263 -156 -264 0
263 -264 -259 0
263 156 -259 0
264 -225 -265 0
264 -265 -251 0
264 225 -251 0
265 -255 -9 0
265 255 9 0
266 -267 -272 0
266 -7 -267 0
266 7 -272 0
267 -268 -175 0
268 -269 -175 0
269 -270 -175 0
27 -28 -9 0
27 28 9 0
270 -271 -39 0
270 271 39 0
272 -267 -273 0
272 -34 -267 0
272 34 -273 0
273 -267 -274 0
273 -47 -267 0
273 47 -274 0
274 -275 -277 0
274 -75 -275 0
274 75 -277 0
275 -271 -276 0
275 271 276 0
277 -275 -278 0
277 -80 -275 0
277 80 -278 0
278 -275 -279 0
278 -84 -275 0
278 84 -279 0
279 -156 -275 0
279 -275 -280 0
279 156 -280 0
280 -159 -275 0
280 -275 -281 0
280 159 -281 0
281 -162 -282 0
281 -282 -283 0
281 162 -283 0
282 -271 -9 0
282 271 9 0
283 -165 -267 0
283 -267 -284 0
283 165 -284 0
284 -168 -267 0
284 -267 -275 0
284 168 -275 0
29 -30 -9 0
29 30 9 0
3 -4 -210 0
31 -32 -9 0
31 32 9 0
33 -10 -46 0
33 -34 -10 0
33 34 -46 0
34 -35 -44 0
35 -36 -42 0
36 -37 -40 0
37 -38 -39 0
37 38 39 0
4 -5 -184 0
40 -41 -39 0
40 41 39 0
42 -43 -39 0
42 43 39 0
44 -45 -39 0
44 45 39 0
46 -47 -51 0
46 -51 -74 0
46 47 -74 0
47 -48 -44 0
48 -49 -42 0
49 -50 -40 0
5 -6 -145 0
50 -38 -9 0
50 38 9 0
51 -52 -72 0
52 -53 -70 0
53 -54 -68 0
54 -55 -66 0
55 -56 -64 0
56 -57 -62 0
57 -58 -60 0
58 -18 -59 0
58 18 59 0
6 -10 -33 0
6 -7 -10 0
6 7 -33 0
60 -20 -61 0
60 20 61 0
62 -22 -63 0
62 22 63 0
64 -24 -65 0
64 24 65 0
66 -26 -67 0
66 26 67 0
68 -28 -69 0
68 28 69 0
7 -8 -9 0
7 8 9 0
70 -30 -71 0
70 30 71 0
72 -32 -73 0
72 32 73 0
74 -51 -79 0
74 -75 -51 0
74 75 -79 0
75 -76 -44 0
76 -77 -42 0
77 -37 -78 0
78 -41 -9 0
78 41 9 0
79 -51 -83 0
79 -80 -51 0
79 80 -83 0
80 -81 -44 0
81 -82 -42 0
82 -50 -78 0
83 -84 -87 0
83 -87 -51 0
83 84 -51 0
84 -85 -44 0
85 -36 -86 0
86 -43 -9 0
86 43 9 0
87 -122 -51 0
87 -88 -122 0
87 88 -51 0
88 -89 -112 0
89 -90 -102 0
9 0
90 -91 -96 0
91 -92 -39 0
91 92 39 0
92 -39 93 0
92 -93 39 0
93 -94 95 0
93 -95 94 0
96 -97 -39 0
96 97 39 0
97 -101 98 0
97 -98 101 0
98 -100 99 0
98 -99 100 0
